100
128
55
50
3
28
4
15
54
9
4
1
41
33
21
34
5
60
27
41
1
19
40
57
26
59
11
43
16
15
54
64
57
1
1
25
39
57
42
30
56
57
42
36
39
20
29
15
30
64
63
58
37
60
64
36
32
30
28
60
24
4
54
12
32
21
21
17
2
32
32
34
48
35
17
15
26
16
13
19
13
61
42
16
52
17
44
30
21
33
64
27
13
4
3
56
24
26
46
29
60
39